p edge 26 130
e 1 2
e 1 3
e 1 4
e 1 5
e 1 6
e 1 7
e 1 8
e 1 9
e 1 10
e 1 11
e 2 3
e 2 4
e 2 5
e 2 12
e 2 13
e 2 14
e 2 15
e 2 16
e 2 17
e 3 8
e 3 9
e 3 14
e 3 15
e 3 22
e 3 23
e 3 24
e 3 25
e 4 5
e 4 10
e 4 16
e 4 18
e 4 20
e 4 22
e 4 24
e 4 26
e 5 11
e 5 17
e 5 19
e 5 21
e 5 23
e 5 25
e 5 26
e 6 7
e 6 8
e 6 11
e 6 12
e 6 15
e 6 16
e 6 20
e 6 25
e 6 26
e 7 9
e 7 10
e 7 13
e 7 15
e 7 17
e 7 21
e 7 24
e 7 26
e 8 10
e 8 13
e 8 16
e 8 18
e 8 19
e 8 23
e 8 25
e 9 11
e 9 12
e 9 17
e 9 18
e 9 19
e 9 22
e 9 24
e 10 13
e 10 14
e 10 19
e 10 20
e 10 21
e 10 22
e 11 12
e 11 14
e 11 18
e 11 20
e 11 21
e 11 23
e 12 13
e 12 14
e 12 16
e 12 19
e 12 22
e 12 26
e 13 14
e 13 17
e 13 18
e 13 23
e 13 26
e 14 20
e 14 21
e 14 24
e 14 25
e 15 16
e 15 17
e 15 20
e 15 21
e 15 22
e 15 23
e 16 18
e 16 19
e 16 21
e 16 24
e 17 18
e 17 19
e 17 20
e 17 25
e 18 20
e 18 23
e 18 24
e 19 21
e 19 22
e 19 25
e 20 22
e 20 25
e 21 23
e 21 24
e 22 23
e 22 26
e 23 26
e 24 25
e 24 26
e 25 26
